96 83 17 58 89 20 14 87 64 62 3 75 55 9 59 63 27 51 31 98 24 35 52 79 45 40 50 19 26 94 23 5 47 76 48 4 21 54 37 67 81 6 84 60 0 41 80 72 73 61 8 44 97 71 88 11 70 22 29 36 33 16 10 12 30 90 91 95 7 99 53 2 82 92 43 57 78 39 86 13 38 93 42 74 66 25 15 1 32 18 49 85 77 46 28 69 56 65 34 68 

